NAME : rc201.2.8839655.tour
COMMENT : Length = 8839655
COMMENT : Found by LKH [Keld Helsgaun] Tue Nov  7 19:52:17 2017
TYPE : TOUR
DIMENSION : 29
TOUR_SECTION
1
27
20
11
29
9
6
5
7
8
19
21
22
14
13
15
24
26
28
17
12
4
10
2
25
16
3
23
18
-1
EOF
